set machine := 1 2 3 4 5 6 7 8 9;

param a := 
1	16
2	16
3	16
4	36
5	36
6	9
7	9
8	9
9	9;


param lb := 2;

param ub := 8;

param f :
	1	2	3	4	5	6	7	8   9:=
1	0	0	0	5	5	0	0	0	1
2	0	0	0	3	3	0	0	0	1
3	0	0	0	2	2	0	0	0	1
4	5	3	2	0	0	4	4	0	0
5	5	3	2	0	0	3	0	0	4
6	0	0	0	4	3	0	0	0	2
7	0	0	0	4	0	0	0	0	1
8	0	0	0	0	0	0	0	0	0
9	1	1	1	0	4	2	1	0	0;		

param lfx := 12;

param lfy := 13;

param M := 10000;
